(set-logic ALL)
(declare-const a_random97_0 String)
(declare-fun seed0_x_2 () String)
(declare-fun seed0_epsilon () String)
(declare-fun seed0_literal_0 () String)
(declare-fun seed0_literal_1 () String)
(declare-fun seed0_x_3 () String)
(assert (and (and (= seed0_epsilon "") (not (str.suffixof (str.++ seed0_literal_0 seed0_literal_1) (str.++ seed0_literal_1 seed0_literal_1)))) (and (= seed0_literal_0 "\u{69}\u{6e}\u{63}\u{6c}\u{75}\u{64}\u{65}\u{2f}") (or (str.suffixof (str.++ seed0_x_3 seed0_x_3) (str.++ seed0_x_2 seed0_literal_1)) (str.prefixof (str.++ seed0_x_2 seed0_x_2) (str.++ seed0_x_2 seed0_x_2)))) (and (or (= seed0_x_2 seed0_epsilon) (= seed0_x_2 seed0_literal_0)) (xor (str.<= (str.++ seed0_epsilon seed0_x_3) (str.++ seed0_epsilon seed0_literal_0)) (str.suffixof (str.++ seed0_literal_1 seed0_x_3) (str.++ seed0_x_3 seed0_literal_1)))) (and (= seed0_literal_1 "\u{66}\u{75}\u{6e}\u{63}\u{2e}\u{70}\u{68}\u{70}") (not (str.contains (str.++ seed0_epsilon seed0_literal_1) (str.++ seed0_literal_0 seed0_literal_1)))) (and (and (str.suffixof seed0_x_3 a_random97_0) (str.prefixof seed0_x_3 a_random97_0) (str.suffixof (str.++ seed0_x_2 seed0_literal_1) a_random97_0) (str.prefixof (str.++ seed0_x_2 seed0_literal_1) a_random97_0)) (str.prefixof (str.++ seed0_literal_1 seed0_x_2) (str.++ seed0_literal_1 seed0_epsilon))) (and (str.in_re seed0_x_3 (re.++ (re.* re.allchar ) (re.++ (str.to_re "\u{2f}\u{65}\u{76}\u{69}\u{6c}") (re.* re.allchar )))) (xor (str.suffixof (str.++ seed0_epsilon seed0_literal_1) (str.++ seed0_epsilon seed0_x_3)) (str.contains (str.++ seed0_literal_1 seed0_literal_1) (str.++ seed0_x_2 seed0_x_3))))))
(check-sat)
(exit)